D4 LOG: Running /Users/bryant/repos/d4/d4 ./mc2022_track1_171.cnf -dDNNF -out=./mc2022_track1_171.cnnf -drat=./mc2022_track1_171.drat
D4 LOG: Time limit 1000 seconds
c [33mBenchmark Information[0m
c Number of variables: 2303
c Number of clauses: 20963
c Number of literals: 42581
c Preproc options: 
c
c Preproc time: 0.002437
c Integer mode 
c
c [1m[32mOption list [0m
c Caching: 1
c Reduce cache procedure level: 20
c Strategy for Reducing the cache: 0
c Cache representation: CL
c Part of the formula that is cached: NT
c Variable heuristic: VSADS
c Phase heuristic: TRUE
c Partitioning heuristic: CB + graph reduction + equivalence simplication
c
c ----------------------------------------------------------------------------------------------------------------------------------------------------------
c   #compile |       time |    #posHit |    #negHit |     #split |    Mem(MB) |     #nodes |     #edges | #equivCall | #Dec. Node | #paritioner |  limit dyn | 
c ----------------------------------------------------------------------------------------------------------------------------------------------------------
c top 5: -885 
c top 5: -885 -951 
c top 5: -885 -951 -890 
c top 5: -885 -951 -890 -745 
c unitLits 1048577 4194308 Bytes
c freeVariables 1048577
c      16384 |       1.07 |      20192 |       8211 |      22010 |        570 |     364244 |     386487 |          0 |       8211 |        1915 |          0 | 
c      32768 |       2.03 |      42333 |      16401 |      45417 |        573 |     760945 |     806769 |          0 |      16401 |        3637 |          0 | 
c ----------------------------------------------------------------------------------------------------------------------------------------------------------
c
c [1m[31mStatistics [0m
c [33mCompilation Information[0m
c Number of compiled node: 40901
c Number of split formula: 59222
c Number of decision node: 20450
c Number of node built on domain constraints: 0
c Number of decomposable AND nodes: 20768
c Number of backbone calls: 0
c Number of partitioner calls: 4473
c Average number of assigned literal to obtain decomposable AND nodes: 1921.45/2303
c Minimum number of assigned variable where a decomposable AND appeared: 1151
c 
c [33mGraph Information[0m
c Number of nodes: 949716
c Number of edges: 1008620
c 
c [1m[34mCache Information[0m
c Memory used: 573 MB
c
c Number of positive hit: 55055
c Number of negative hit: 20450
c Number of reduceCall: 0
c
c Final time: 2.492965
c 
s 0.000000
D4 LOG: Elapsed time = 3.022 seconds
D4 OUTCOME: normal
mc2022_track1_171. D4 NNF LOG: size ./mc2022_track1_171.cnnf 141344 lines 11956140 bytes
mc2022_track1_171. D4 DRAT LOG: size ./mc2022_track1_171.drat 45341 lines 699345 bytes
DTRIM LOG: Running /Users/bryant/repos/drat-trim/drat-trim ./mc2022_track1_171.cnf ./mc2022_track1_171.drat -f -U
DTRIM LOG: Time limit 1000 seconds

c parsing input formula with 2303 variables and 20963 clauses

c finished parsing

c start forward verification

c 20790 of 20963 clauses in core                            

c 6867 of 24464 lemmas in core using 114997 resolution steps

c 0 RAT lemmas in core; 0 redundant literals in core lemmas

c optimized proofs are not supported for forward checking

c VERIFIED derivation: all lemmas preserve satisfiability

c WARNING: no empty clause detected, this is not a refutation

s DERIVATION

c verification time: 0.069 seconds
DTRIM LOG: Elapsed time = 0.085 seconds
DTRIM OUTCOME: normal
CHECK LOG: Running /Users/bryant/repos/d4/certificator ./mc2022_track1_171.cnf ./mc2022_track1_171.cnnf ./mc2022_track1_171.drat
CHECK LOG: Time limit 1000 seconds
c CNF information
c Number of variables: 2303
c Number of clauses: 20963
c
c DRAT information
c Number of drat clauses: 24463
c
c DDnnf parsing: 0.075
c DDnnf checked: 1.068
c
c Global time: 1.080
CHECK LOG: Elapsed time = 1.120 seconds
CHECK OUTCOME: normal
OVERALL LOG: Elapsed time = 4.264 seconds
OVERALL OUTCOME: normal
